\ENCODING=ISO-8859-1
\Problem name: ilog.cplex

Minimize
 obj1: 100677 x1 + 105434 x2 + 105068 x3 + 91212 x4 + 104640 x5 + 105200 x6
       + 96352 x7 + 97795 x8 + 96181 x9 + 99705 x10 + 104551 x11 + 90477 x12
       + 90161 x13 + 98515 x14 + 109601 x15 + 103266 x16 + 96142 x17
       + 105914 x18 + 97928 x19 + 100031 x20 + 104646 x21 + 95238 x22
       + 106486 x23 + 97037 x24 + 91611 x25 + 107350 x26 + 102922 x27
       + 100507 x28 + 104110 x29 + 106843 x30 + 103814 x31 + 104005 x32
       + 108379 x33 + 108345 x34 + 93809 x35 + 104489 x36 + 109834 x37
       + 99691 x38 + 109826 x39 + 95611 x40 + 93973 x41 + 98742 x42 + 96626 x43
       + 102166 x44 + 106948 x45 + 106277 x46 + 102650 x47 + 90552 x48
       + 95044 x49 + 98661 x50 + 100873 x51 + 103436 x52 + 94922 x53
       + 96482 x54 + 93012 x55 + 92918 x56 + 99800 x57 + 93544 x58 + 91526 x59
       + 99243 x60 + 104963 x61 + 98603 x62 + 90208 x63 + 90803 x64
       + 103864 x65 + 93944 x66 + 105352 x67 + 95770 x68 + 100637 x69
       + 93703 x70 + 104532 x71 + 106160 x72 + 90287 x73 + 107282 x74
       + 109082 x75 + 104990 x76 + 103229 x77 + 108343 x78 + 106609 x79
       + 97681 x80 + 100744 x81 + 91132 x82 + 91828 x83 + 97780 x84 + 95174 x85
       + 102668 x86 + 91439 x87 + 106604 x88 + 101489 x89 + 96670 x90
       + 101999 x91 + 96625 x92 + 105312 x93 + 103091 x94 + 98443 x95
       + 99168 x96 + 96591 x97 + 105737 x98 + 95339 x99 + 108464 x100
       + 106121 x101 + 90784 x102 + 100139 x103 + 96025 x104 + 102761 x105
       + 107756 x106 + 104628 x107 + 103761 x108 + 106878 x109 + 97625 x110
       + 92005 x111 + 97794 x112 + 104886 x113 + 92195 x114 + 92899 x115
       + 95683 x116 + 90889 x117 + 93676 x118 + 109055 x119 + 97038 x120
       + 99871 x121 + 108878 x122 + 91811 x123 + 102427 x124 + 93807 x125
       + 104400 x126 + 93571 x127 + 94830 x128 + 106632 x129 + 101851 x130
       + 90432 x131 + 108384 x132 + 91032 x133 + 92481 x134 + 98932 x135
       + 109826 x136 + 107729 x137 + 96540 x138 + 105402 x139 + 94287 x140
       + 96201 x141 + 104277 x142 + 92521 x143 + 109005 x144 + 104733 x145
       + 92711 x146 + 104395 x147 + 106038 x148 + 97214 x149 + 95092 x150
       + 108491 x151 + 93592 x152 + 91168 x153 + 107370 x154 + 98986 x155
       + 101664 x156 + 99316 x157 + 105029 x158 + 103642 x159 + 90469 x160
       + 102390 x161 + 94183 x162 + 93821 x163 + 109037 x164 + 106377 x165
       + 100110 x166 + 95299 x167 + 108235 x168 + 92701 x169 + 93467 x170
       + 97248 x171 + 109993 x172 + 97039 x173 + 95995 x174 + 104379 x175
       + 103255 x176 + 91468 x177 + 101268 x178 + 94326 x179 + 96767 x180
       + 101832 x181 + 91998 x182 + 95849 x183 + 101779 x184 + 95979 x185
       + 101208 x186 + 102496 x187 + 91366 x188 + 97908 x189 + 91018 x190
       + 101073 x191 + 107304 x192 + 97892 x193 + 109835 x194 + 104603 x195
       + 100308 x196 + 99295 x197 + 96413 x198 + 95428 x199 + 94906 x200
       + 106374 x201 + 100614 x202 + 95123 x203 + 109405 x204 + 103857 x205
       + 96031 x206 + 107689 x207 + 94069 x208 + 91183 x209 + 106209 x210
       + 102101 x211 + 96383 x212 + 104870 x213 + 98160 x214 + 101330 x215
       + 93022 x216 + 107427 x217 + 101636 x218 + 106157 x219 + 105291 x220
       + 103287 x221 + 107969 x222 + 100430 x223 + 92718 x224 + 104598 x225
       + 109472 x226 + 102263 x227 + 91359 x228 + 104545 x229 + 99026 x230
       + 106837 x231 + 99186 x232 + 97029 x233 + 96397 x234 + 100425 x235
       + 103155 x236 + 93246 x237 + 90310 x238 + 99772 x239 + 100352 x240
       + 108074 x241 + 103498 x242 + 106173 x243 + 109117 x244 + 102165 x245
       + 101668 x246 + 99362 x247 + 95080 x248 + 109268 x249 + 79668 x250
       + 20601 x251 + 19120 x252 + 19960 x253 + 20739 x254 + 21229 x255
       + 18213 x256 + 19775 x257 + 20381 x258 + 18666 x259 + 21723 x260
       + 21487 x261 + 18663 x262 + 18945 x263 + 19829 x264 + 21238 x265
       + 18312 x266 + 19936 x267 + 18864 x268 + 18869 x269 + 21423 x270
       + 19691 x271 + 21091 x272 + 21663 x273 + 21544 x274 + 21448 x275
       + 19961 x276 + 19034 x277 + 20100 x278 + 21437 x279 + 19616 x280
       + 20474 x281 + 20713 x282 + 18317 x283 + 18588 x284 + 18961 x285
       + 21825 x286 + 19135 x287 + 21164 x288 + 21261 x289 + 21266 x290
       + 20153 x291 + 19787 x292 + 19200 x293 + 21974 x294 + 19700 x295
       + 20180 x296 + 21994 x297 + 18083 x298 + 18378 x299 + 15289 x300
Subject To
 c1:   x6 + x10 - x12 + x21 - x23 + x28 + x31 - x34 - x36 - x45  = 0
 c2:   x56 + x60 - x62 + x71 - x73 + x78 + x81 - x84 - x86 - x95  = 0
 c3:   x106 + x110 - x112 + x121 - x123 + x128 + x131 - x134 - x136 - x145  = 0
 c4:   x156 + x160 - x162 + x171 - x173 + x178 + x181 - x184 - x186 - x195  = 0
 c5:   x206 + x210 - x212 + x221 - x223 + x228 + x231 - x234 - x236 - x245  = 0
 c6:   x8 + x14 + x15 - x18 + x22 + x27 + x32 - x35 - x40 + x41 - x50  = 0
 c7:   x58 + x64 + x65 - x68 + x72 + x77 + x82 - x85 - x90 + x91 - x100  = -1
 c8:   x108 + x114 + x115 - x118 + x122 + x127 + x132 - x135 - x140 + x141
       - x150  = 0
 c9:   x158 + x164 + x165 - x168 + x172 + x177 + x182 - x185 - x190 + x191
       - x200  = 0
 c10:  x208 + x214 + x215 - x218 + x222 + x227 + x232 - x235 - x240 + x241
       - x250  = 0
 c11:  x3 + x4 + x19 - x25 - x26 - x32 + x36 + x43 - x44 - x48  = 0
 c12:  x53 + x54 + x69 - x75 - x76 - x82 + x86 + x93 - x94 - x98  = 0
 c13:  x103 + x104 + x119 - x125 - x126 - x132 + x136 + x143 - x144 - x148  = 0
 c14:  x153 + x154 + x169 - x175 - x176 - x182 + x186 + x193 - x194 - x198
        = -1
 c15:  x203 + x204 + x219 - x225 - x226 - x232 + x236 + x243 - x244 - x248  = 0
 c16:  x17 - x27 - x33 + x37 - x43 + x48  = 0
 c17:  x67 - x77 - x83 + x87 - x93 + x98  = 0
 c18:  x117 - x127 - x133 + x137 - x143 + x148  = 0
 c19:  x167 - x177 - x183 + x187 - x193 + x198  = 0
 c20:  x217 - x227 - x233 + x237 - x243 + x248  = 0
 c21:  - x20 - x22 + x25 + x29 - x31 + x34 - x38 + x47 + x49  = 0
 c22:  - x70 - x72 + x75 + x79 - x81 + x84 - x88 + x97 + x99  = 0
 c23:  - x120 - x122 + x125 + x129 - x131 + x134 - x138 + x147 + x149  = 0
 c24:  - x170 - x172 + x175 + x179 - x181 + x184 - x188 + x197 + x199  = 0
 c25:  - x220 - x222 + x225 + x229 - x231 + x234 - x238 + x247 + x249  = 0
 c26:  - x1 - x2 - x6 - x14 + x23 + x33 + x39 + x44 - x46 - x47  = 0
 c27:  - x51 - x52 - x56 - x64 + x73 + x83 + x89 + x94 - x96 - x97  = 0
 c28:  - x101 - x102 - x106 - x114 + x123 + x133 + x139 + x144 - x146 - x147
        = 0
 c29:  - x151 - x152 - x156 - x164 + x173 + x183 + x189 + x194 - x196 - x197
        = 0
 c30:  - x201 - x202 - x206 - x214 + x223 + x233 + x239 + x244 - x246 - x247
        = 0
 c31:  x1 - x3 + x5 - x7 - x9 + x12 - x17 + x18 + x24 - x28 - x41  = -1
 c32:  x51 - x53 + x55 - x57 - x59 + x62 - x67 + x68 + x74 - x78 - x91  = 0
 c33:  x101 - x103 + x105 - x107 - x109 + x112 - x117 + x118 + x124 - x128
       - x141  = -1
 c34:  x151 - x153 + x155 - x157 - x159 + x162 - x167 + x168 + x174 - x178
       - x191  = 0
 c35:  x201 - x203 + x205 - x207 - x209 + x212 - x217 + x218 + x224 - x228
       - x241  = 0
 c36:  - x5 + x7 - x11 + x13 - x19 - x21 + x26 + x30 + x38 + x50  = 0
 c37:  - x55 + x57 - x61 + x63 - x69 - x71 + x76 + x80 + x88 + x100  = 0
 c38:  - x105 + x107 - x111 + x113 - x119 - x121 + x126 + x130 + x138 + x150
        = 0
 c39:  - x155 + x157 - x161 + x163 - x169 - x171 + x176 + x180 + x188 + x200
        = 0
 c40:  - x205 + x207 - x211 + x213 - x219 - x221 + x226 + x230 + x238 + x250
        = -1
 c41:  x2 - x4 - x8 - x10 + x11 - x13 - x16 + x20 - x29 - x37 - x39 + x40 + x42
        = 1
 c42:  x52 - x54 - x58 - x60 + x61 - x63 - x66 + x70 - x79 - x87 - x89 + x90
       + x92  = 1
 c43:  x102 - x104 - x108 - x110 + x111 - x113 - x116 + x120 - x129 - x137
       - x139 + x140 + x142  = 0
 c44:  x152 - x154 - x158 - x160 + x161 - x163 - x166 + x170 - x179 - x187
       - x189 + x190 + x192  = 0
 c45:  x202 - x204 - x208 - x210 + x211 - x213 - x216 + x220 - x229 - x237
       - x239 + x240 + x242  = 1
 c46:  x9 - x15 + x16 - x24 - x30 + x35 - x42 + x45 + x46 - x49  = 0
 c47:  x59 - x65 + x66 - x74 - x80 + x85 - x92 + x95 + x96 - x99  = 0
 c48:  x109 - x115 + x116 - x124 - x130 + x135 - x142 + x145 + x146 - x149  = 1
 c49:  x159 - x165 + x166 - x174 - x180 + x185 - x192 + x195 + x196 - x199  = 1
 c50:  x209 - x215 + x216 - x224 - x230 + x235 - x242 + x245 + x246 - x249  = 0
 c51:  4 x1 + 4 x51 + 4 x101 + 4 x151 + 4 x201 - 10 x251 <= 0
 c52:  4 x2 + 4 x52 + 4 x102 + 4 x152 + 4 x202 - 10 x252 <= 0
 c53:  4 x3 + 4 x53 + 4 x103 + 4 x153 + 4 x203 - 9 x253 <= 0
 c54:  4 x4 + 4 x54 + 4 x104 + 4 x154 + 4 x204 - 9 x254 <= 0
 c55:  4 x5 + 4 x55 + 4 x105 + 4 x155 + 4 x205 - 10 x255 <= 0
 c56:  4 x6 + 4 x56 + 4 x106 + 4 x156 + 4 x206 - 11 x256 <= 0
 c57:  4 x7 + 4 x57 + 4 x107 + 4 x157 + 4 x207 - 10 x257 <= 0
 c58:  4 x8 + 4 x58 + 4 x108 + 4 x158 + 4 x208 - 9 x258 <= 0
 c59:  4 x9 + 4 x59 + 4 x109 + 4 x159 + 4 x209 - 9 x259 <= 0
 c60:  4 x10 + 4 x60 + 4 x110 + 4 x160 + 4 x210 - 10 x260 <= 0
 c61:  4 x11 + 4 x61 + 4 x111 + 4 x161 + 4 x211 - 10 x261 <= 0
 c62:  4 x12 + 4 x62 + 4 x112 + 4 x162 + 4 x212 - 10 x262 <= 0
 c63:  4 x13 + 4 x63 + 4 x113 + 4 x163 + 4 x213 - 11 x263 <= 0
 c64:  4 x14 + 4 x64 + 4 x114 + 4 x164 + 4 x214 - 10 x264 <= 0
 c65:  4 x15 + 4 x65 + 4 x115 + 4 x165 + 4 x215 - 10 x265 <= 0
 c66:  4 x16 + 4 x66 + 4 x116 + 4 x166 + 4 x216 - 11 x266 <= 0
 c67:  4 x17 + 4 x67 + 4 x117 + 4 x167 + 4 x217 - 9 x267 <= 0
 c68:  4 x18 + 4 x68 + 4 x118 + 4 x168 + 4 x218 - 10 x268 <= 0
 c69:  4 x19 + 4 x69 + 4 x119 + 4 x169 + 4 x219 - 11 x269 <= 0
 c70:  4 x20 + 4 x70 + 4 x120 + 4 x170 + 4 x220 - 9 x270 <= 0
 c71:  4 x21 + 4 x71 + 4 x121 + 4 x171 + 4 x221 - 9 x271 <= 0
 c72:  4 x22 + 4 x72 + 4 x122 + 4 x172 + 4 x222 - 10 x272 <= 0
 c73:  4 x23 + 4 x73 + 4 x123 + 4 x173 + 4 x223 - 11 x273 <= 0
 c74:  4 x24 + 4 x74 + 4 x124 + 4 x174 + 4 x224 - 11 x274 <= 0
 c75:  4 x25 + 4 x75 + 4 x125 + 4 x175 + 4 x225 - 11 x275 <= 0
 c76:  4 x26 + 4 x76 + 4 x126 + 4 x176 + 4 x226 - 10 x276 <= 0
 c77:  4 x27 + 4 x77 + 4 x127 + 4 x177 + 4 x227 - 10 x277 <= 0
 c78:  4 x28 + 4 x78 + 4 x128 + 4 x178 + 4 x228 - 11 x278 <= 0
 c79:  4 x29 + 4 x79 + 4 x129 + 4 x179 + 4 x229 - 11 x279 <= 0
 c80:  4 x30 + 4 x80 + 4 x130 + 4 x180 + 4 x230 - 11 x280 <= 0
 c81:  4 x31 + 4 x81 + 4 x131 + 4 x181 + 4 x231 - 10 x281 <= 0
 c82:  4 x32 + 4 x82 + 4 x132 + 4 x182 + 4 x232 - 10 x282 <= 0
 c83:  4 x33 + 4 x83 + 4 x133 + 4 x183 + 4 x233 - 10 x283 <= 0
 c84:  4 x34 + 4 x84 + 4 x134 + 4 x184 + 4 x234 - 10 x284 <= 0
 c85:  4 x35 + 4 x85 + 4 x135 + 4 x185 + 4 x235 - 11 x285 <= 0
 c86:  4 x36 + 4 x86 + 4 x136 + 4 x186 + 4 x236 - 9 x286 <= 0
 c87:  4 x37 + 4 x87 + 4 x137 + 4 x187 + 4 x237 - 10 x287 <= 0
 c88:  4 x38 + 4 x88 + 4 x138 + 4 x188 + 4 x238 - 11 x288 <= 0
 c89:  4 x39 + 4 x89 + 4 x139 + 4 x189 + 4 x239 - 9 x289 <= 0
 c90:  4 x40 + 4 x90 + 4 x140 + 4 x190 + 4 x240 - 10 x290 <= 0
 c91:  4 x41 + 4 x91 + 4 x141 + 4 x191 + 4 x241 - 10 x291 <= 0
 c92:  4 x42 + 4 x92 + 4 x142 + 4 x192 + 4 x242 - 10 x292 <= 0
 c93:  4 x43 + 4 x93 + 4 x143 + 4 x193 + 4 x243 - 11 x293 <= 0
 c94:  4 x44 + 4 x94 + 4 x144 + 4 x194 + 4 x244 - 10 x294 <= 0
 c95:  4 x45 + 4 x95 + 4 x145 + 4 x195 + 4 x245 - 10 x295 <= 0
 c96:  4 x46 + 4 x96 + 4 x146 + 4 x196 + 4 x246 - 10 x296 <= 0
 c97:  4 x47 + 4 x97 + 4 x147 + 4 x197 + 4 x247 - 11 x297 <= 0
 c98:  4 x48 + 4 x98 + 4 x148 + 4 x198 + 4 x248 - 9 x298 <= 0
 c99:  4 x49 + 4 x99 + 4 x149 + 4 x199 + 4 x249 - 10 x299 <= 0
 c100: 4 x50 + 4 x100 + 4 x150 + 4 x200 + 4 x250 - 6 x300 <= 0
Bounds
 0 <= x1 <= 1
 0 <= x2 <= 1
 0 <= x3 <= 1
 0 <= x4 <= 1
 0 <= x5 <= 1
 0 <= x6 <= 1
 0 <= x7 <= 1
 0 <= x8 <= 1
 0 <= x9 <= 1
 0 <= x10 <= 1
 0 <= x11 <= 1
 0 <= x12 <= 1
 0 <= x13 <= 1
 0 <= x14 <= 1
 0 <= x15 <= 1
 0 <= x16 <= 1
 0 <= x17 <= 1
 0 <= x18 <= 1
 0 <= x19 <= 1
 0 <= x20 <= 1
 0 <= x21 <= 1
 0 <= x22 <= 1
 0 <= x23 <= 1
 0 <= x24 <= 1
 0 <= x25 <= 1
 0 <= x26 <= 1
 0 <= x27 <= 1
 0 <= x28 <= 1
 0 <= x29 <= 1
 0 <= x30 <= 1
 0 <= x31 <= 1
 0 <= x32 <= 1
 0 <= x33 <= 1
 0 <= x34 <= 1
 0 <= x35 <= 1
 0 <= x36 <= 1
 0 <= x37 <= 1
 0 <= x38 <= 1
 0 <= x39 <= 1
 0 <= x40 <= 1
 0 <= x41 <= 1
 0 <= x42 <= 1
 0 <= x43 <= 1
 0 <= x44 <= 1
 0 <= x45 <= 1
 0 <= x46 <= 1
 0 <= x47 <= 1
 0 <= x48 <= 1
 0 <= x49 <= 1
 0 <= x50 <= 1
 0 <= x51 <= 1
 0 <= x52 <= 1
 0 <= x53 <= 1
 0 <= x54 <= 1
 0 <= x55 <= 1
 0 <= x56 <= 1
 0 <= x57 <= 1
 0 <= x58 <= 1
 0 <= x59 <= 1
 0 <= x60 <= 1
 0 <= x61 <= 1
 0 <= x62 <= 1
 0 <= x63 <= 1
 0 <= x64 <= 1
 0 <= x65 <= 1
 0 <= x66 <= 1
 0 <= x67 <= 1
 0 <= x68 <= 1
 0 <= x69 <= 1
 0 <= x70 <= 1
 0 <= x71 <= 1
 0 <= x72 <= 1
 0 <= x73 <= 1
 0 <= x74 <= 1
 0 <= x75 <= 1
 0 <= x76 <= 1
 0 <= x77 <= 1
 0 <= x78 <= 1
 0 <= x79 <= 1
 0 <= x80 <= 1
 0 <= x81 <= 1
 0 <= x82 <= 1
 0 <= x83 <= 1
 0 <= x84 <= 1
 0 <= x85 <= 1
 0 <= x86 <= 1
 0 <= x87 <= 1
 0 <= x88 <= 1
 0 <= x89 <= 1
 0 <= x90 <= 1
 0 <= x91 <= 1
 0 <= x92 <= 1
 0 <= x93 <= 1
 0 <= x94 <= 1
 0 <= x95 <= 1
 0 <= x96 <= 1
 0 <= x97 <= 1
 0 <= x98 <= 1
 0 <= x99 <= 1
 0 <= x100 <= 1
 0 <= x101 <= 1
 0 <= x102 <= 1
 0 <= x103 <= 1
 0 <= x104 <= 1
 0 <= x105 <= 1
 0 <= x106 <= 1
 0 <= x107 <= 1
 0 <= x108 <= 1
 0 <= x109 <= 1
 0 <= x110 <= 1
 0 <= x111 <= 1
 0 <= x112 <= 1
 0 <= x113 <= 1
 0 <= x114 <= 1
 0 <= x115 <= 1
 0 <= x116 <= 1
 0 <= x117 <= 1
 0 <= x118 <= 1
 0 <= x119 <= 1
 0 <= x120 <= 1
 0 <= x121 <= 1
 0 <= x122 <= 1
 0 <= x123 <= 1
 0 <= x124 <= 1
 0 <= x125 <= 1
 0 <= x126 <= 1
 0 <= x127 <= 1
 0 <= x128 <= 1
 0 <= x129 <= 1
 0 <= x130 <= 1
 0 <= x131 <= 1
 0 <= x132 <= 1
 0 <= x133 <= 1
 0 <= x134 <= 1
 0 <= x135 <= 1
 0 <= x136 <= 1
 0 <= x137 <= 1
 0 <= x138 <= 1
 0 <= x139 <= 1
 0 <= x140 <= 1
 0 <= x141 <= 1
 0 <= x142 <= 1
 0 <= x143 <= 1
 0 <= x144 <= 1
 0 <= x145 <= 1
 0 <= x146 <= 1
 0 <= x147 <= 1
 0 <= x148 <= 1
 0 <= x149 <= 1
 0 <= x150 <= 1
 0 <= x151 <= 1
 0 <= x152 <= 1
 0 <= x153 <= 1
 0 <= x154 <= 1
 0 <= x155 <= 1
 0 <= x156 <= 1
 0 <= x157 <= 1
 0 <= x158 <= 1
 0 <= x159 <= 1
 0 <= x160 <= 1
 0 <= x161 <= 1
 0 <= x162 <= 1
 0 <= x163 <= 1
 0 <= x164 <= 1
 0 <= x165 <= 1
 0 <= x166 <= 1
 0 <= x167 <= 1
 0 <= x168 <= 1
 0 <= x169 <= 1
 0 <= x170 <= 1
 0 <= x171 <= 1
 0 <= x172 <= 1
 0 <= x173 <= 1
 0 <= x174 <= 1
 0 <= x175 <= 1
 0 <= x176 <= 1
 0 <= x177 <= 1
 0 <= x178 <= 1
 0 <= x179 <= 1
 0 <= x180 <= 1
 0 <= x181 <= 1
 0 <= x182 <= 1
 0 <= x183 <= 1
 0 <= x184 <= 1
 0 <= x185 <= 1
 0 <= x186 <= 1
 0 <= x187 <= 1
 0 <= x188 <= 1
 0 <= x189 <= 1
 0 <= x190 <= 1
 0 <= x191 <= 1
 0 <= x192 <= 1
 0 <= x193 <= 1
 0 <= x194 <= 1
 0 <= x195 <= 1
 0 <= x196 <= 1
 0 <= x197 <= 1
 0 <= x198 <= 1
 0 <= x199 <= 1
 0 <= x200 <= 1
 0 <= x201 <= 1
 0 <= x202 <= 1
 0 <= x203 <= 1
 0 <= x204 <= 1
 0 <= x205 <= 1
 0 <= x206 <= 1
 0 <= x207 <= 1
 0 <= x208 <= 1
 0 <= x209 <= 1
 0 <= x210 <= 1
 0 <= x211 <= 1
 0 <= x212 <= 1
 0 <= x213 <= 1
 0 <= x214 <= 1
 0 <= x215 <= 1
 0 <= x216 <= 1
 0 <= x217 <= 1
 0 <= x218 <= 1
 0 <= x219 <= 1
 0 <= x220 <= 1
 0 <= x221 <= 1
 0 <= x222 <= 1
 0 <= x223 <= 1
 0 <= x224 <= 1
 0 <= x225 <= 1
 0 <= x226 <= 1
 0 <= x227 <= 1
 0 <= x228 <= 1
 0 <= x229 <= 1
 0 <= x230 <= 1
 0 <= x231 <= 1
 0 <= x232 <= 1
 0 <= x233 <= 1
 0 <= x234 <= 1
 0 <= x235 <= 1
 0 <= x236 <= 1
 0 <= x237 <= 1
 0 <= x238 <= 1
 0 <= x239 <= 1
 0 <= x240 <= 1
 0 <= x241 <= 1
 0 <= x242 <= 1
 0 <= x243 <= 1
 0 <= x244 <= 1
 0 <= x245 <= 1
 0 <= x246 <= 1
 0 <= x247 <= 1
 0 <= x248 <= 1
 0 <= x249 <= 1
 0 <= x250 <= 1
 0 <= x251 <= 1
 0 <= x252 <= 1
 0 <= x253 <= 1
 0 <= x254 <= 1
 0 <= x255 <= 1
 0 <= x256 <= 1
 0 <= x257 <= 1
 0 <= x258 <= 1
 0 <= x259 <= 1
 0 <= x260 <= 1
 0 <= x261 <= 1
 0 <= x262 <= 1
 0 <= x263 <= 1
 0 <= x264 <= 1
 0 <= x265 <= 1
 0 <= x266 <= 1
 0 <= x267 <= 1
 0 <= x268 <= 1
 0 <= x269 <= 1
 0 <= x270 <= 1
 0 <= x271 <= 1
 0 <= x272 <= 1
 0 <= x273 <= 1
 0 <= x274 <= 1
 0 <= x275 <= 1
 0 <= x276 <= 1
 0 <= x277 <= 1
 0 <= x278 <= 1
 0 <= x279 <= 1
 0 <= x280 <= 1
 0 <= x281 <= 1
 0 <= x282 <= 1
 0 <= x283 <= 1
 0 <= x284 <= 1
 0 <= x285 <= 1
 0 <= x286 <= 1
 0 <= x287 <= 1
 0 <= x288 <= 1
 0 <= x289 <= 1
 0 <= x290 <= 1
 0 <= x291 <= 1
 0 <= x292 <= 1
 0 <= x293 <= 1
 0 <= x294 <= 1
 0 <= x295 <= 1
 0 <= x296 <= 1
 0 <= x297 <= 1
 0 <= x298 <= 1
 0 <= x299 <= 1
 0 <= x300 <= 1
Binaries
 x251  x252  x253  x254  x255  x256  x257  x258  x259  x260  x261  x262  x263 
 x264  x265  x266  x267  x268  x269  x270  x271  x272  x273  x274  x275  x276 
 x277  x278  x279  x280  x281  x282  x283  x284  x285  x286  x287  x288  x289 
 x290  x291  x292  x293  x294  x295  x296  x297  x298  x299  x300 
End
